
ASes= { 1, 2, 3, 4, 5, 6, 7, 8, 9, 10, 11 } ;


Objects= { 1, 2, 3, 4, 5, 6, 7, 8, 9, 10, 11, 12, 13, 14, 15, 16, 17, 18, 19, 20, 21, 22, 23, 24, 25, 26, 27, 28, 29, 30, 31, 32, 33, 34, 35, 36, 37, 38, 39, 40, 41, 42, 43, 44, 45, 46, 47, 48, 49, 50, 51, 52, 53, 54, 55, 56, 57, 58, 59, 60, 61, 62, 63, 64, 65, 66, 67, 68, 69, 70, 71, 72, 73, 74, 75, 76, 77, 78, 79, 80, 81, 82, 83, 84, 85, 86, 87, 88, 89, 90, 91, 92, 93, 94, 95, 96, 97, 98, 99, 100 } ;


QualityLevels= { 0, 1, 2, 3, 4, 5 } ;

Arcs = {<2,1,490000>, <1,2,490000>, <11,1,490000>, <1,11,490000>, <11,2,490000>, <2,11,490000>, <11,10,490000>, <10,11,490000>, <3,2,490000>, <2,3,490000>, <4,3,490000>, <3,4,490000>, <5,4,490000>, <4,5,490000>, <6,5,490000>, <5,6,490000>, <7,6,490000>, <6,7,490000>, <8,4,490000>, <4,8,490000>, <8,7,490000>, <7,8,490000>, <9,3,490000>, <3,9,490000>, <9,8,490000>, <8,9,490000>, <10,9,490000>, <9,10,490000>};


RatePerQuality= [ 0  300  700  1500  2500  3500 ] ;


CacheSpacePerQuality= [ 10000  11.25  26.25  56.25  93.75  131.25 ] ;


UtilityPerQuality= [ 0  0.2  0.4  0.6  0.8  1 ] ;


ObjectsPublishedByProducers=[ [ 0  0  0  0  0  0  0  1  0  0  0 ]  [ 0  0  0  0  0  0  0  1  0  0  0 ]  [ 0  0  0  0  0  0  0  1  0  0  0 ]  [ 0  0  0  0  0  0  0  1  0  0  0 ]  [ 0  0  0  0  0  0  0  1  0  0  0 ]  [ 0  0  0  0  0  0  0  1  0  0  0 ]  [ 0  0  0  0  0  0  0  1  0  0  0 ]  [ 0  0  0  0  0  0  0  1  0  0  0 ]  [ 0  0  0  0  0  0  0  1  0  0  0 ]  [ 0  0  0  0  0  0  0  1  0  0  0 ]  [ 0  0  0  0  0  0  0  1  0  0  0 ]  [ 0  0  0  0  0  0  0  1  0  0  0 ]  [ 0  0  0  0  0  0  0  1  0  0  0 ]  [ 0  0  0  0  0  0  0  1  0  0  0 ]  [ 0  0  0  0  0  0  0  1  0  0  0 ]  [ 0  0  0  0  0  0  0  1  0  0  0 ]  [ 0  0  0  0  0  0  0  1  0  0  0 ]  [ 0  0  0  0  0  0  0  1  0  0  0 ]  [ 0  0  0  0  0  0  0  1  0  0  0 ]  [ 0  0  0  0  0  0  0  1  0  0  0 ]  [ 0  0  0  0  0  0  0  1  0  0  0 ]  [ 0  0  0  0  0  0  0  1  0  0  0 ]  [ 0  0  0  0  0  0  0  1  0  0  0 ]  [ 0  0  0  0  0  0  0  1  0  0  0 ]  [ 0  0  0  0  0  0  0  1  0  0  0 ]  [ 0  0  0  0  0  0  0  1  0  0  0 ]  [ 0  0  0  0  0  0  0  1  0  0  0 ]  [ 0  0  0  0  0  0  0  1  0  0  0 ]  [ 0  0  0  0  0  0  0  1  0  0  0 ]  [ 0  0  0  0  0  0  0  1  0  0  0 ]  [ 0  0  0  0  0  0  0  1  0  0  0 ]  [ 0  0  0  0  0  0  0  1  0  0  0 ]  [ 0  0  0  0  0  0  0  1  0  0  0 ]  [ 0  0  0  0  0  0  0  1  0  0  0 ]  [ 0  0  0  0  0  0  0  1  0  0  0 ]  [ 0  0  0  0  0  0  0  1  0  0  0 ]  [ 0  0  0  0  0  0  0  1  0  0  0 ]  [ 0  0  0  0  0  0  0  1  0  0  0 ]  [ 0  0  0  0  0  0  0  1  0  0  0 ]  [ 0  0  0  0  0  0  0  1  0  0  0 ]  [ 0  0  0  0  0  0  0  1  0  0  0 ]  [ 0  0  0  0  0  0  0  1  0  0  0 ]  [ 0  0  0  0  0  0  0  1  0  0  0 ]  [ 0  0  0  0  0  0  0  1  0  0  0 ]  [ 0  0  0  0  0  0  0  1  0  0  0 ]  [ 0  0  0  0  0  0  0  1  0  0  0 ]  [ 0  0  0  0  0  0  0  1  0  0  0 ]  [ 0  0  0  0  0  0  0  1  0  0  0 ]  [ 0  0  0  0  0  0  0  1  0  0  0 ]  [ 0  0  0  0  0  0  0  1  0  0  0 ]  [ 0  0  0  0  0  0  0  1  0  0  0 ]  [ 0  0  0  0  0  0  0  1  0  0  0 ]  [ 0  0  0  0  0  0  0  1  0  0  0 ]  [ 0  0  0  0  0  0  0  1  0  0  0 ]  [ 0  0  0  0  0  0  0  1  0  0  0 ]  [ 0  0  0  0  0  0  0  1  0  0  0 ]  [ 0  0  0  0  0  0  0  1  0  0  0 ]  [ 0  0  0  0  0  0  0  1  0  0  0 ]  [ 0  0  0  0  0  0  0  1  0  0  0 ]  [ 0  0  0  0  0  0  0  1  0  0  0 ]  [ 0  0  0  0  0  0  0  1  0  0  0 ]  [ 0  0  0  0  0  0  0  1  0  0  0 ]  [ 0  0  0  0  0  0  0  1  0  0  0 ]  [ 0  0  0  0  0  0  0  1  0  0  0 ]  [ 0  0  0  0  0  0  0  1  0  0  0 ]  [ 0  0  0  0  0  0  0  1  0  0  0 ]  [ 0  0  0  0  0  0  0  1  0  0  0 ]  [ 0  0  0  0  0  0  0  1  0  0  0 ]  [ 0  0  0  0  0  0  0  1  0  0  0 ]  [ 0  0  0  0  0  0  0  1  0  0  0 ]  [ 0  0  0  0  0  0  0  1  0  0  0 ]  [ 0  0  0  0  0  0  0  1  0  0  0 ]  [ 0  0  0  0  0  0  0  1  0  0  0 ]  [ 0  0  0  0  0  0  0  1  0  0  0 ]  [ 0  0  0  0  0  0  0  1  0  0  0 ]  [ 0  0  0  0  0  0  0  1  0  0  0 ]  [ 0  0  0  0  0  0  0  1  0  0  0 ]  [ 0  0  0  0  0  0  0  1  0  0  0 ]  [ 0  0  0  0  0  0  0  1  0  0  0 ]  [ 0  0  0  0  0  0  0  1  0  0  0 ]  [ 0  0  0  0  0  0  0  1  0  0  0 ]  [ 0  0  0  0  0  0  0  1  0  0  0 ]  [ 0  0  0  0  0  0  0  1  0  0  0 ]  [ 0  0  0  0  0  0  0  1  0  0  0 ]  [ 0  0  0  0  0  0  0  1  0  0  0 ]  [ 0  0  0  0  0  0  0  1  0  0  0 ]  [ 0  0  0  0  0  0  0  1  0  0  0 ]  [ 0  0  0  0  0  0  0  1  0  0  0 ]  [ 0  0  0  0  0  0  0  1  0  0  0 ]  [ 0  0  0  0  0  0  0  1  0  0  0 ]  [ 0  0  0  0  0  0  0  1  0  0  0 ]  [ 0  0  0  0  0  0  0  1  0  0  0 ]  [ 0  0  0  0  0  0  0  1  0  0  0 ]  [ 0  0  0  0  0  0  0  1  0  0  0 ]  [ 0  0  0  0  0  0  0  1  0  0  0 ]  [ 0  0  0  0  0  0  0  1  0  0  0 ]  [ 0  0  0  0  0  0  0  1  0  0  0 ]  [ 0  0  0  0  0  0  0  1  0  0  0 ]  [ 0  0  0  0  0  0  0  1  0  0  0 ]  [ 0  0  0  0  0  0  0  1  0  0  0 ] ];

ObjRequests = {  <1,5,151>, <2,5,333>, <3,5,192>, <4,5,263>, <5,5,90>, <6,5,125>, <7,5,88>, <8,5,81>, <9,5,65>, <10,5,21>, <11,5,6>, <12,5,138>, <13,5,40>, <14,5,3>, <15,5,61>, <16,5,25>, <17,5,5>, <18,5,22>, <19,5,17>, <20,5,42>, <21,5,24>, <22,5,77>, <23,5,20>, <24,5,13>, <25,5,37>, <26,5,14>, <27,5,1>, <28,5,20>, <29,5,15>, <30,5,5>, <31,5,6>, <32,5,8>, <33,5,14>, <34,5,2>, <35,5,21>, <36,5,1>, <37,5,4>, <38,5,20>, <39,5,2>, <40,5,6>, <41,5,1>, <42,5,2>, <43,5,4>, <44,5,15>, <45,5,8>, <46,5,25>, <47,5,29>, <48,5,8>, <49,5,5>, <50,5,3>, <51,5,2>, <52,5,3>, <53,5,19>, <54,5,1>, <55,5,5>, <56,5,3>, <57,5,1>, <58,5,6>, <59,5,4>, <60,5,3>, <61,5,2>, <62,5,4>, <63,5,2>, <64,5,1>, <65,5,2>, <66,5,2>, <67,5,4>, <68,5,7>, <69,5,8>, <70,5,11>, <71,5,11>, <72,5,7>, <73,5,14>, <74,5,6>, <75,5,3>, <76,5,6>, <77,5,7>, <78,5,5>, <79,5,2>, <80,5,3>, <81,5,7>, <82,5,12>, <83,5,13>, <84,5,6>, <85,5,4>, <86,5,4>, <87,5,17>, <88,5,5>, <89,5,7>, <91,5,1>, <92,5,3>, <93,5,6>, <94,5,2>, <95,5,2>, <97,5,4>, <98,5,4>, <99,5,3>, <100,5,8>, <1,6,28>, <2,6,461>, <3,6,125>, <4,6,46>, <5,6,187>, <6,6,67>, <7,6,110>, <8,6,117>, <9,6,8>, <10,6,66>, <11,6,86>, <12,6,10>, <13,6,18>, <14,6,15>, <15,6,38>, <16,6,42>, <17,6,4>, <18,6,53>, <19,6,44>, <20,6,7>, <21,6,15>, <22,6,7>, <23,6,13>, <24,6,43>, <25,6,6>, <26,6,27>, <27,6,9>, <28,6,34>, <29,6,8>, <30,6,2>, <31,6,1>, <32,6,15>, <33,6,26>, <34,6,3>, <35,6,18>, <36,6,45>, <37,6,11>, <38,6,10>, <39,6,4>, <40,6,29>, <41,6,6>, <42,6,22>, <43,6,5>, <44,6,3>, <45,6,5>, <46,6,10>, <47,6,5>, <49,6,17>, <50,6,2>, <51,6,2>, <52,6,11>, <53,6,5>, <54,6,8>, <55,6,4>, <56,6,1>, <57,6,6>, <58,6,7>, <59,6,12>, <60,6,6>, <61,6,2>, <62,6,2>, <63,6,6>, <64,6,3>, <65,6,1>, <66,6,4>, <67,6,3>, <68,6,10>, <70,6,17>, <71,6,5>, <72,6,5>, <73,6,16>, <74,6,10>, <75,6,8>, <76,6,1>, <77,6,3>, <78,6,3>, <79,6,16>, <80,6,10>, <81,6,6>, <82,6,4>, <83,6,9>, <84,6,3>, <85,6,9>, <86,6,3>, <87,6,9>, <88,6,2>, <89,6,7>, <90,6,14>, <91,6,4>, <92,6,4>, <94,6,20>, <95,6,11>, <96,6,4>, <97,6,1>, <98,6,9>, <99,6,1>, <100,6,9>, <1,7,922>, <2,7,38>, <3,7,303>, <4,7,147>, <5,7,150>, <6,7,37>, <7,7,137>, <8,7,37>, <9,7,62>, <10,7,57>, <11,7,13>, <12,7,6>, <13,7,46>, <14,7,52>, <15,7,2>, <16,7,14>, <17,7,61>, <18,7,16>, <19,7,20>, <20,7,20>, <21,7,31>, <22,7,22>, <23,7,12>, <24,7,32>, <25,7,14>, <26,7,8>, <27,7,72>, <28,7,14>, <29,7,10>, <30,7,7>, <31,7,39>, <32,7,1>, <33,7,3>, <34,7,31>, <35,7,16>, <36,7,7>, <37,7,31>, <38,7,10>, <39,7,20>, <41,7,21>, <42,7,4>, <43,7,21>, <44,7,29>, <45,7,7>, <46,7,3>, <47,7,7>, <48,7,20>, <49,7,1>, <50,7,5>, <51,7,5>, <52,7,8>, <53,7,6>, <54,7,18>, <55,7,4>, <56,7,18>, <58,7,6>, <59,7,7>, <60,7,2>, <61,7,20>, <62,7,7>, <63,7,7>, <64,7,18>, <65,7,3>, <66,7,30>, <67,7,3>, <68,7,2>, <69,7,5>, <70,7,2>, <71,7,5>, <72,7,3>, <73,7,4>, <74,7,2>, <75,7,2>, <76,7,5>, <77,7,4>, <78,7,15>, <79,7,4>, <80,7,9>, <81,7,5>, <82,7,9>, <83,7,1>, <84,7,2>, <85,7,9>, <86,7,7>, <87,7,2>, <88,7,8>, <90,7,1>, <91,7,4>, <92,7,5>, <93,7,5>, <94,7,5>, <95,7,2>, <96,7,1>, <98,7,6>, <99,7,8>, <100,7,4>, <1,1,976>, <2,1,340>, <3,1,24>, <4,1,8>, <5,1,70>, <6,1,3>, <7,1,17>, <8,1,10>, <9,1,18>, <10,1,65>, <11,1,87>, <12,1,46>, <13,1,25>, <14,1,2>, <15,1,11>, <16,1,49>, <17,1,40>, <18,1,9>, <19,1,24>, <20,1,27>, <21,1,50>, <22,1,2>, <23,1,5>, <24,1,9>, <25,1,6>, <26,1,19>, <27,1,10>, <28,1,11>, <29,1,14>, <30,1,16>, <31,1,11>, <32,1,3>, <33,1,1>, <34,1,32>, <35,1,1>, <36,1,2>, <37,1,3>, <38,1,16>, <39,1,32>, <40,1,5>, <41,1,13>, <42,1,19>, <43,1,3>, <44,1,1>, <45,1,6>, <47,1,8>, <48,1,16>, <49,1,18>, <50,1,3>, <51,1,24>, <52,1,10>, <53,1,3>, <54,1,15>, <55,1,4>, <56,1,15>, <57,1,11>, <58,1,14>, <59,1,16>, <60,1,1>, <61,1,4>, <62,1,13>, <63,1,15>, <64,1,1>, <65,1,7>, <66,1,3>, <67,1,2>, <68,1,2>, <69,1,1>, <70,1,14>, <71,1,3>, <72,1,20>, <73,1,6>, <74,1,6>, <75,1,14>, <76,1,13>, <77,1,9>, <78,1,7>, <79,1,3>, <80,1,1>, <81,1,12>, <82,1,1>, <83,1,7>, <84,1,7>, <85,1,3>, <86,1,2>, <87,1,1>, <88,1,4>, <89,1,5>, <90,1,1>, <91,1,14>, <92,1,5>, <95,1,5>, <96,1,5>, <97,1,3>, <98,1,5>, <99,1,9>, <1,10,282>, <2,10,4>, <3,10,135>, <4,10,113>, <5,10,16>, <6,10,142>, <7,10,14>, <8,10,64>, <9,10,144>, <10,10,20>, <11,10,24>, <12,10,6>, <13,10,45>, <14,10,108>, <15,10,27>, <16,10,4>, <17,10,31>, <18,10,31>, <19,10,12>, <20,10,19>, <21,10,6>, <22,10,16>, <23,10,46>, <25,10,28>, <26,10,29>, <27,10,1>, <28,10,12>, <29,10,32>, <30,10,49>, <31,10,11>, <32,10,35>, <33,10,16>, <34,10,17>, <35,10,23>, <36,10,4>, <37,10,5>, <38,10,4>, <39,10,2>, <40,10,29>, <41,10,15>, <42,10,21>, <43,10,19>, <44,10,3>, <45,10,32>, <46,10,3>, <47,10,2>, <48,10,9>, <49,10,7>, <50,10,28>, <51,10,7>, <52,10,5>, <53,10,3>, <54,10,6>, <55,10,25>, <56,10,9>, <57,10,15>, <58,10,7>, <59,10,3>, <60,10,18>, <61,10,6>, <62,10,2>, <63,10,9>, <64,10,6>, <65,10,26>, <66,10,3>, <67,10,17>, <68,10,3>, <69,10,11>, <71,10,4>, <72,10,4>, <73,10,4>, <74,10,5>, <75,10,7>, <76,10,3>, <77,10,13>, <78,10,15>, <79,10,2>, <80,10,5>, <81,10,5>, <82,10,1>, <83,10,1>, <84,10,2>, <85,10,2>, <86,10,2>, <88,10,4>, <89,10,6>, <90,10,5>, <91,10,4>, <92,10,9>, <93,10,5>, <94,10,1>, <95,10,5>, <96,10,12>, <97,10,16>, <98,10,1>, <99,10,7>, <100,10,1> };

MaxCacheStorageAtSingleAS= [ 131.25  131.25  131.25  131.25  131.25  131.25  131.25  131.25  131.25  131.25  131.25 ] ;

MaxCacheStorage = 1443.75 ;
SolutionGap = 0.01 ;
